-326.0 4.0 7.0 1.0 3.0 10.0 9.0 4.0 7.0 6.0 6.0 1.0 0.0 4.0 2.0 8.0 0.0 10.0 9.0 1.0 2.0 6.0 10.0 10.0 7.0 1.0 5.0 8.0 7.0 2.0 2.0 9.0 0.0 10.0 6.0 7.0 5.0 6.0 8.0 6.0 2.0 7.0 6.0 5.0 10.0 5.0 9.0 9.0 9.0 5.0 7.0 9.0 8.0 7.0 2.0 1.0 2.0 6.0 8.0 0.0 
4.0 -253.0 1.0 4.0 3.0 4.0 1.0 3.0 3.0 3.0 8.0 1.0 8.0 6.0 1.0 4.0 7.0 9.0 8.0 1.0 8.0 10.0 4.0 6.0 1.0 2.0 5.0 9.0 10.0 6.0 5.0 4.0 9.0 2.0 3.0 6.0 1.0 3.0 3.0 9.0 2.0 1.0 6.0 8.0 1.0 5.0 2.0 9.0 4.0 10.0 7.0 6.0 7.0 0.0 0.0 0.0 0.0 0.0 0.0 0.0 
7.0 1.0 -316.0 10.0 7.0 6.0 10.0 1.0 6.0 1.0 3.0 9.0 3.0 7.0 7.0 0.0 3.0 6.0 1.0 7.0 2.0 3.0 0.0 10.0 7.0 7.0 8.0 1.0 10.0 9.0 4.0 0.0 4.0 7.0 5.0 4.0 0.0 2.0 5.0 2.0 10.0 9.0 5.0 4.0 3.0 2.0 6.0 9.0 6.0 7.0 8.0 10.0 7.0 5.0 8.0 3.0 3.0 8.0 10.0 8.0 
1.0 4.0 10.0 -313.0 5.0 2.0 9.0 3.0 3.0 10.0 2.0 6.0 4.0 6.0 0.0 2.0 7.0 9.0 10.0 0.0 0.0 7.0 2.0 6.0 9.0 8.0 0.0 6.0 7.0 5.0 10.0 10.0 8.0 3.0 7.0 6.0 2.0 2.0 4.0 3.0 3.0 1.0 4.0 8.0 1.0 8.0 9.0 2.0 8.0 9.0 1.0 10.0 3.0 5.0 1.0 10.0 3.0 10.0 9.0 10.0 
3.0 3.0 7.0 5.0 -273.0 5.0 6.0 3.0 3.0 8.0 5.0 1.0 8.0 6.0 9.0 1.0 7.0 5.0 1.0 5.0 2.0 6.0 6.0 0.0 6.0 4.0 2.0 10.0 2.0 0.0 9.0 1.0 5.0 4.0 6.0 10.0 0.0 5.0 5.0 2.0 7.0 2.0 3.0 1.0 2.0 4.0 4.0 10.0 4.0 4.0 6.0 4.0 10.0 8.0 2.0 5.0 3.0 5.0 8.0 5.0 
10.0 4.0 6.0 2.0 5.0 -263.0 4.0 1.0 0.0 9.0 9.0 7.0 4.0 8.0 4.0 6.0 0.0 4.0 7.0 10.0 7.0 4.0 1.0 1.0 5.0 3.0 1.0 7.0 1.0 2.0 1.0 2.0 10.0 10.0 8.0 5.0 6.0 0.0 9.0 0.0 1.0 2.0 0.0 0.0 10.0 7.0 2.0 5.0 7.0 4.0 0.0 0.0 7.0 6.0 5.0 2.0 6.0 4.0 3.0 9.0 
9.0 1.0 10.0 9.0 6.0 4.0 -290.0 2.0 8.0 1.0 2.0 10.0 5.0 3.0 2.0 0.0 7.0 7.0 1.0 10.0 4.0 7.0 2.0 6.0 1.0 9.0 10.0 5.0 6.0 2.0 8.0 3.0 2.0 9.0 1.0 2.0 9.0 2.0 6.0 2.0 3.0 5.0 4.0 5.0 5.0 3.0 0.0 9.0 10.0 10.0 0.0 9.0 10.0 6.0 7.0 2.0 2.0 1.0 4.0 2.0 
4.0 3.0 1.0 3.0 3.0 1.0 2.0 -261.0 7.0 4.0 10.0 6.0 2.0 1.0 6.0 7.0 7.0 9.0 9.0 0.0 0.0 1.0 8.0 7.0 7.0 2.0 7.0 1.0 4.0 5.0 4.0 8.0 6.0 0.0 1.0 2.0 6.0 8.0 7.0 0.0 2.0 4.0 10.0 2.0 3.0 6.0 7.0 1.0 6.0 9.0 2.0 7.0 1.0 3.0 3.0 7.0 9.0 1.0 8.0 1.0 
7.0 3.0 6.0 3.0 3.0 0.0 8.0 7.0 -282.0 2.0 0.0 9.0 8.0 10.0 5.0 3.0 7.0 0.0 4.0 6.0 1.0 6.0 9.0 2.0 5.0 9.0 1.0 4.0 8.0 0.0 0.0 6.0 9.0 10.0 5.0 10.0 6.0 5.0 8.0 5.0 9.0 7.0 8.0 7.0 1.0 0.0 5.0 4.0 1.0 0.0 3.0 5.0 2.0 3.0 9.0 4.0 4.0 1.0 2.0 7.0 
6.0 3.0 1.0 10.0 8.0 9.0 1.0 4.0 2.0 -308.0 0.0 8.0 2.0 2.0 10.0 4.0 10.0 5.0 8.0 4.0 2.0 10.0 5.0 10.0 0.0 2.0 8.0 4.0 9.0 9.0 10.0 6.0 5.0 1.0 0.0 1.0 4.0 9.0 3.0 7.0 5.0 7.0 5.0 1.0 6.0 3.0 9.0 1.0 4.0 9.0 10.0 0.0 10.0 0.0 6.0 4.0 6.0 1.0 9.0 10.0 
6.0 8.0 3.0 2.0 5.0 9.0 2.0 10.0 0.0 0.0 -275.0 7.0 6.0 5.0 5.0 5.0 4.0 10.0 5.0 2.0 8.0 7.0 0.0 5.0 4.0 4.0 10.0 0.0 2.0 3.0 6.0 1.0 5.0 7.0 8.0 9.0 2.0 9.0 2.0 2.0 0.0 1.0 8.0 2.0 3.0 10.0 10.0 1.0 7.0 10.0 8.0 2.0 4.0 1.0 1.0 7.0 1.0 3.0 3.0 5.0 
1.0 1.0 9.0 6.0 1.0 7.0 10.0 6.0 9.0 8.0 7.0 -284.0 5.0 4.0 4.0 5.0 3.0 9.0 5.0 8.0 8.0 3.0 4.0 10.0 1.0 1.0 5.0 10.0 2.0 1.0 8.0 1.0 0.0 0.0 7.0 2.0 3.0 0.0 2.0 8.0 2.0 3.0 1.0 2.0 3.0 7.0 3.0 8.0 6.0 6.0 6.0 4.0 7.0 1.0 10.0 7.0 1.0 10.0 4.0 9.0 
0.0 8.0 3.0 4.0 8.0 4.0 5.0 2.0 8.0 2.0 6.0 5.0 -285.0 2.0 4.0 3.0 9.0 0.0 1.0 4.0 2.0 10.0 5.0 8.0 2.0 8.0 3.0 2.0 8.0 3.0 5.0 4.0 4.0 1.0 1.0 8.0 4.0 1.0 10.0 7.0 7.0 10.0 10.0 9.0 1.0 0.0 9.0 5.0 6.0 5.0 8.0 9.0 3.0 3.0 5.0 2.0 0.0 9.0 5.0 5.0 
4.0 6.0 7.0 6.0 6.0 8.0 3.0 1.0 10.0 2.0 5.0 4.0 2.0 -284.0 0.0 3.0 1.0 7.0 0.0 9.0 1.0 8.0 6.0 4.0 3.0 5.0 9.0 5.0 2.0 3.0 2.0 0.0 3.0 7.0 7.0 3.0 7.0 5.0 10.0 0.0 9.0 9.0 1.0 2.0 5.0 7.0 7.0 3.0 1.0 2.0 10.0 9.0 6.0 8.0 9.0 5.0 0.0 8.0 5.0 4.0 
2.0 1.0 7.0 0.0 9.0 4.0 2.0 6.0 5.0 10.0 5.0 4.0 4.0 0.0 -306.0 3.0 4.0 7.0 3.0 1.0 7.0 3.0 6.0 0.0 5.0 5.0 3.0 8.0 7.0 10.0 3.0 9.0 6.0 4.0 4.0 5.0 1.0 0.0 3.0 10.0 2.0 3.0 7.0 9.0 2.0 3.0 6.0 10.0 6.0 9.0 9.0 9.0 9.0 8.0 10.0 9.0 6.0 4.0 0.0 9.0 
8.0 4.0 0.0 2.0 1.0 6.0 0.0 7.0 3.0 4.0 5.0 5.0 3.0 3.0 3.0 -294.0 3.0 0.0 0.0 2.0 1.0 6.0 7.0 10.0 4.0 8.0 3.0 3.0 3.0 9.0 1.0 3.0 3.0 1.0 10.0 2.0 7.0 7.0 2.0 10.0 4.0 5.0 2.0 9.0 10.0 2.0 1.0 10.0 10.0 10.0 7.0 8.0 7.0 3.0 8.0 8.0 8.0 10.0 10.0 3.0 
0.0 7.0 3.0 7.0 7.0 0.0 7.0 7.0 7.0 10.0 4.0 3.0 9.0 1.0 4.0 3.0 -265.0 5.0 10.0 6.0 7.0 3.0 10.0 0.0 7.0 8.0 2.0 9.0 1.0 1.0 8.0 2.0 4.0 1.0 0.0 4.0 7.0 2.0 1.0 4.0 4.0 4.0 2.0 6.0 1.0 4.0 0.0 9.0 3.0 4.0 0.0 7.0 1.0 8.0 1.0 8.0 10.0 6.0 2.0 4.0 
10.0 9.0 6.0 9.0 5.0 4.0 7.0 9.0 0.0 5.0 10.0 9.0 0.0 7.0 7.0 0.0 5.0 -321.0 3.0 4.0 8.0 6.0 8.0 4.0 8.0 1.0 10.0 5.0 7.0 4.0 1.0 2.0 1.0 1.0 3.0 8.0 0.0 8.0 2.0 10.0 9.0 3.0 7.0 7.0 5.0 1.0 5.0 5.0 9.0 3.0 3.0 6.0 9.0 10.0 9.0 5.0 9.0 1.0 2.0 7.0 
9.0 8.0 1.0 10.0 1.0 7.0 1.0 9.0 4.0 8.0 5.0 5.0 1.0 0.0 3.0 0.0 10.0 3.0 -286.0 7.0 1.0 1.0 0.0 8.0 7.0 5.0 3.0 2.0 9.0 2.0 7.0 6.0 2.0 9.0 8.0 4.0 8.0 3.0 9.0 4.0 2.0 2.0 5.0 1.0 10.0 1.0 2.0 8.0 7.0 7.0 2.0 2.0 10.0 3.0 3.0 4.0 6.0 10.0 7.0 4.0 
1.0 1.0 7.0 0.0 5.0 10.0 10.0 0.0 6.0 4.0 2.0 8.0 4.0 9.0 1.0 2.0 6.0 4.0 7.0 -303.0 7.0 8.0 10.0 4.0 6.0 7.0 6.0 3.0 0.0 2.0 6.0 3.0 10.0 1.0 9.0 7.0 1.0 0.0 9.0 1.0 0.0 8.0 9.0 2.0 3.0 4.0 9.0 3.0 4.0 5.0 7.0 6.0 10.0 6.0 10.0 8.0 0.0 4.0 8.0 10.0 
2.0 8.0 2.0 0.0 2.0 7.0 4.0 0.0 1.0 2.0 8.0 8.0 2.0 1.0 7.0 1.0 7.0 8.0 1.0 7.0 -289.0 9.0 5.0 4.0 10.0 3.0 0.0 6.0 10.0 9.0 8.0 9.0 6.0 8.0 4.0 7.0 1.0 7.0 7.0 6.0 3.0 4.0 9.0 9.0 8.0 2.0 10.0 5.0 0.0 3.0 7.0 6.0 5.0 7.0 0.0 8.0 0.0 1.0 3.0 2.0 
6.0 10.0 3.0 7.0 6.0 4.0 7.0 1.0 6.0 10.0 7.0 3.0 10.0 8.0 3.0 6.0 3.0 6.0 1.0 8.0 9.0 -298.0 7.0 6.0 1.0 7.0 2.0 6.0 1.0 1.0 3.0 4.0 6.0 0.0 3.0 10.0 4.0 7.0 2.0 3.0 0.0 7.0 5.0 9.0 5.0 4.0 8.0 9.0 1.0 4.0 7.0 6.0 6.0 0.0 8.0 5.0 10.0 2.0 4.0 1.0 
10.0 4.0 0.0 2.0 6.0 1.0 2.0 8.0 9.0 5.0 0.0 4.0 5.0 6.0 6.0 7.0 10.0 8.0 0.0 10.0 5.0 7.0 -271.0 8.0 3.0 1.0 5.0 2.0 5.0 1.0 4.0 4.0 0.0 1.0 8.0 4.0 1.0 0.0 8.0 9.0 7.0 1.0 9.0 0.0 6.0 2.0 6.0 4.0 6.0 4.0 2.0 10.0 8.0 4.0 7.0 0.0 1.0 8.0 6.0 1.0 
10.0 6.0 10.0 6.0 0.0 1.0 6.0 7.0 2.0 10.0 5.0 10.0 8.0 4.0 0.0 10.0 0.0 4.0 8.0 4.0 4.0 6.0 8.0 -328.0 3.0 6.0 9.0 6.0 4.0 9.0 3.0 4.0 9.0 9.0 10.0 4.0 7.0 5.0 7.0 8.0 9.0 4.0 0.0 9.0 0.0 7.0 9.0 4.0 5.0 4.0 6.0 4.0 0.0 0.0 8.0 10.0 3.0 6.0 7.0 1.0 
7.0 1.0 7.0 9.0 6.0 5.0 1.0 7.0 5.0 0.0 4.0 1.0 2.0 3.0 5.0 4.0 7.0 8.0 7.0 6.0 10.0 1.0 3.0 3.0 -279.0 1.0 0.0 0.0 0.0 3.0 1.0 7.0 10.0 1.0 4.0 10.0 10.0 9.0 3.0 1.0 6.0 10.0 0.0 8.0 2.0 6.0 4.0 5.0 10.0 10.0 6.0 7.0 2.0 0.0 9.0 3.0 9.0 1.0 4.0 5.0 
1.0 2.0 7.0 8.0 4.0 3.0 9.0 2.0 9.0 2.0 4.0 1.0 8.0 5.0 5.0 8.0 8.0 1.0 5.0 7.0 3.0 7.0 1.0 6.0 1.0 -248.0 5.0 2.0 2.0 4.0 7.0 3.0 0.0 9.0 1.0 8.0 0.0 1.0 5.0 1.0 0.0 5.0 3.0 8.0 5.0 4.0 10.0 7.0 0.0 8.0 4.0 4.0 1.0 5.0 4.0 1.0 3.0 1.0 1.0 9.0 
5.0 5.0 8.0 0.0 2.0 1.0 10.0 7.0 1.0 8.0 10.0 5.0 3.0 9.0 3.0 3.0 2.0 10.0 3.0 6.0 0.0 2.0 5.0 9.0 0.0 5.0 -284.0 8.0 7.0 7.0 4.0 8.0 1.0 5.0 4.0 4.0 0.0 7.0 3.0 3.0 1.0 7.0 7.0 5.0 10.0 1.0 3.0 1.0 4.0 7.0 7.0 7.0 9.0 7.0 4.0 1.0 9.0 1.0 9.0 1.0 
8.0 9.0 1.0 6.0 10.0 7.0 5.0 1.0 4.0 4.0 0.0 10.0 2.0 5.0 8.0 3.0 9.0 5.0 2.0 3.0 6.0 6.0 2.0 6.0 0.0 2.0 8.0 -271.0 0.0 3.0 4.0 1.0 1.0 0.0 5.0 3.0 4.0 2.0 3.0 3.0 8.0 1.0 6.0 4.0 10.0 7.0 9.0 3.0 4.0 4.0 9.0 5.0 5.0 1.0 2.0 4.0 10.0 1.0 7.0 10.0 
7.0 10.0 10.0 7.0 2.0 1.0 6.0 4.0 8.0 9.0 2.0 2.0 8.0 2.0 7.0 3.0 1.0 7.0 9.0 0.0 10.0 1.0 5.0 4.0 0.0 2.0 7.0 0.0 -268.0 5.0 6.0 5.0 9.0 1.0 2.0 3.0 0.0 10.0 6.0 3.0 1.0 4.0 2.0 9.0 4.0 6.0 7.0 6.0 0.0 0.0 4.0 10.0 4.0 0.0 7.0 1.0 2.0 4.0 4.0 9.0 
2.0 6.0 9.0 5.0 0.0 2.0 2.0 5.0 0.0 9.0 3.0 1.0 3.0 3.0 10.0 9.0 1.0 4.0 2.0 2.0 9.0 1.0 1.0 9.0 3.0 4.0 7.0 3.0 5.0 -282.0 4.0 2.0 8.0 2.0 9.0 9.0 9.0 5.0 6.0 0.0 2.0 5.0 3.0 7.0 0.0 6.0 10.0 6.0 2.0 3.0 6.0 10.0 7.0 7.0 4.0 4.0 8.0 8.0 7.0 3.0 
2.0 5.0 4.0 10.0 9.0 1.0 8.0 4.0 0.0 10.0 6.0 8.0 5.0 2.0 3.0 1.0 8.0 1.0 7.0 6.0 8.0 3.0 4.0 3.0 1.0 7.0 4.0 4.0 6.0 4.0 -268.0 5.0 3.0 1.0 5.0 4.0 4.0 7.0 3.0 10.0 6.0 0.0 6.0 7.0 5.0 1.0 1.0 1.0 6.0 7.0 3.0 0.0 2.0 3.0 9.0 7.0 5.0 10.0 2.0 1.0 
9.0 4.0 0.0 10.0 1.0 2.0 3.0 8.0 6.0 6.0 1.0 1.0 4.0 0.0 9.0 3.0 2.0 2.0 6.0 3.0 9.0 4.0 4.0 4.0 7.0 3.0 8.0 1.0 5.0 2.0 5.0 -260.0 9.0 1.0 2.0 9.0 2.0 6.0 0.0 6.0 7.0 4.0 4.0 2.0 3.0 8.0 7.0 8.0 2.0 1.0 0.0 3.0 5.0 1.0 5.0 9.0 8.0 2.0 9.0 5.0 
0.0 9.0 4.0 8.0 5.0 10.0 2.0 6.0 9.0 5.0 5.0 0.0 4.0 3.0 6.0 3.0 4.0 1.0 2.0 10.0 6.0 6.0 0.0 9.0 10.0 0.0 1.0 1.0 9.0 8.0 3.0 9.0 -280.0 10.0 8.0 9.0 8.0 0.0 1.0 2.0 8.0 4.0 4.0 4.0 0.0 3.0 1.0 0.0 9.0 5.0 0.0 5.0 2.0 9.0 0.0 4.0 4.0 9.0 9.0 4.0 
10.0 2.0 7.0 3.0 4.0 10.0 9.0 0.0 10.0 1.0 7.0 0.0 1.0 7.0 4.0 1.0 1.0 1.0 9.0 1.0 8.0 0.0 1.0 9.0 1.0 9.0 5.0 0.0 1.0 2.0 1.0 1.0 10.0 -262.0 1.0 9.0 0.0 10.0 2.0 0.0 9.0 1.0 1.0 4.0 2.0 10.0 9.0 10.0 1.0 2.0 4.0 7.0 9.0 5.0 0.0 4.0 7.0 9.0 4.0 6.0 
6.0 3.0 5.0 7.0 6.0 8.0 1.0 1.0 5.0 0.0 8.0 7.0 1.0 7.0 4.0 10.0 0.0 3.0 8.0 9.0 4.0 3.0 8.0 10.0 4.0 1.0 4.0 5.0 2.0 9.0 5.0 2.0 8.0 1.0 -281.0 3.0 5.0 7.0 5.0 2.0 0.0 6.0 3.0 3.0 5.0 10.0 6.0 1.0 2.0 7.0 0.0 3.0 2.0 0.0 4.0 8.0 9.0 10.0 9.0 6.0 
7.0 6.0 4.0 6.0 10.0 5.0 2.0 2.0 10.0 1.0 9.0 2.0 8.0 3.0 5.0 2.0 4.0 8.0 4.0 7.0 7.0 10.0 4.0 4.0 10.0 8.0 4.0 3.0 3.0 9.0 4.0 9.0 9.0 9.0 3.0 -313.0 4.0 1.0 10.0 6.0 2.0 2.0 10.0 1.0 2.0 0.0 4.0 0.0 6.0 7.0 8.0 6.0 6.0 10.0 7.0 3.0 1.0 5.0 4.0 7.0 
5.0 1.0 0.0 2.0 0.0 6.0 9.0 6.0 6.0 4.0 2.0 3.0 4.0 7.0 1.0 7.0 7.0 0.0 8.0 1.0 1.0 4.0 1.0 7.0 10.0 0.0 0.0 4.0 0.0 9.0 4.0 2.0 8.0 0.0 5.0 4.0 -287.0 6.0 10.0 10.0 9.0 3.0 6.0 7.0 10.0 1.0 4.0 6.0 3.0 10.0 2.0 2.0 7.0 9.0 4.0 7.0 8.0 10.0 10.0 5.0 
6.0 3.0 2.0 2.0 5.0 0.0 2.0 8.0 5.0 9.0 9.0 0.0 1.0 5.0 0.0 7.0 2.0 8.0 3.0 0.0 7.0 7.0 0.0 5.0 9.0 1.0 7.0 2.0 10.0 5.0 7.0 6.0 0.0 10.0 7.0 1.0 6.0 -281.0 0.0 7.0 2.0 5.0 4.0 10.0 3.0 6.0 0.0 9.0 6.0 4.0 9.0 2.0 0.0 5.0 8.0 8.0 7.0 7.0 3.0 9.0 
8.0 3.0 5.0 4.0 5.0 9.0 6.0 7.0 8.0 3.0 2.0 2.0 10.0 10.0 3.0 2.0 1.0 2.0 9.0 9.0 7.0 2.0 8.0 7.0 3.0 5.0 3.0 3.0 6.0 6.0 3.0 0.0 1.0 2.0 5.0 10.0 10.0 0.0 -307.0 1.0 4.0 7.0 10.0 4.0 10.0 8.0 9.0 4.0 4.0 7.0 4.0 8.0 3.0 9.0 4.0 2.0 7.0 2.0 2.0 9.0 
6.0 9.0 2.0 3.0 2.0 0.0 2.0 0.0 5.0 7.0 2.0 8.0 7.0 0.0 10.0 10.0 4.0 10.0 4.0 1.0 6.0 3.0 9.0 8.0 1.0 1.0 3.0 3.0 3.0 0.0 10.0 6.0 2.0 0.0 2.0 6.0 10.0 7.0 1.0 -282.0 1.0 2.0 4.0 7.0 9.0 10.0 8.0 3.0 9.0 1.0 6.0 7.0 10.0 5.0 3.0 9.0 8.0 6.0 1.0 0.0 
2.0 2.0 10.0 3.0 7.0 1.0 3.0 2.0 9.0 5.0 0.0 2.0 7.0 9.0 2.0 4.0 4.0 9.0 2.0 0.0 3.0 0.0 7.0 9.0 6.0 0.0 1.0 8.0 1.0 2.0 6.0 7.0 8.0 9.0 0.0 2.0 9.0 2.0 4.0 1.0 -249.0 4.0 5.0 0.0 2.0 7.0 3.0 9.0 1.0 6.0 6.0 4.0 5.0 3.0 3.0 1.0 6.0 4.0 2.0 10.0 
7.0 1.0 9.0 1.0 2.0 2.0 5.0 4.0 7.0 7.0 1.0 3.0 10.0 9.0 3.0 5.0 4.0 3.0 2.0 8.0 4.0 7.0 1.0 4.0 10.0 5.0 7.0 1.0 4.0 5.0 0.0 4.0 4.0 1.0 6.0 2.0 3.0 5.0 7.0 2.0 4.0 -288.0 2.0 6.0 8.0 2.0 8.0 0.0 2.0 9.0 10.0 0.0 10.0 10.0 10.0 7.0 8.0 3.0 4.0 10.0 
6.0 6.0 5.0 4.0 3.0 0.0 4.0 10.0 8.0 5.0 8.0 1.0 10.0 1.0 7.0 2.0 2.0 7.0 5.0 9.0 9.0 5.0 9.0 0.0 0.0 3.0 7.0 6.0 2.0 3.0 6.0 4.0 4.0 1.0 3.0 10.0 6.0 4.0 10.0 4.0 5.0 2.0 -299.0 1.0 1.0 5.0 1.0 9.0 10.0 10.0 7.0 6.0 0.0 6.0 8.0 5.0 7.0 8.0 5.0 4.0 
5.0 8.0 4.0 8.0 1.0 0.0 5.0 2.0 7.0 1.0 2.0 2.0 9.0 2.0 9.0 9.0 6.0 7.0 1.0 2.0 9.0 9.0 0.0 9.0 8.0 8.0 5.0 4.0 9.0 7.0 7.0 2.0 4.0 4.0 3.0 1.0 7.0 10.0 4.0 7.0 0.0 6.0 1.0 -283.0 3.0 3.0 9.0 9.0 5.0 4.0 5.0 3.0 0.0 5.0 4.0 7.0 5.0 4.0 3.0 0.0 
10.0 1.0 3.0 1.0 2.0 10.0 5.0 3.0 1.0 6.0 3.0 3.0 1.0 5.0 2.0 10.0 1.0 5.0 10.0 3.0 8.0 5.0 6.0 0.0 2.0 5.0 10.0 10.0 4.0 0.0 5.0 3.0 0.0 2.0 5.0 2.0 10.0 3.0 10.0 9.0 2.0 8.0 1.0 3.0 -266.0 7.0 5.0 8.0 2.0 8.0 2.0 3.0 3.0 7.0 6.0 0.0 8.0 3.0 1.0 5.0 
5.0 5.0 2.0 8.0 4.0 7.0 3.0 6.0 0.0 3.0 10.0 7.0 0.0 7.0 3.0 2.0 4.0 1.0 1.0 4.0 2.0 4.0 2.0 7.0 6.0 4.0 1.0 7.0 6.0 6.0 1.0 8.0 3.0 10.0 10.0 0.0 1.0 6.0 8.0 10.0 7.0 2.0 5.0 3.0 7.0 -280.0 3.0 1.0 4.0 2.0 1.0 1.0 8.0 8.0 5.0 4.0 10.0 9.0 8.0 8.0 
9.0 2.0 6.0 9.0 4.0 2.0 0.0 7.0 5.0 9.0 10.0 3.0 9.0 7.0 6.0 1.0 0.0 5.0 2.0 9.0 10.0 8.0 6.0 9.0 4.0 10.0 3.0 9.0 7.0 10.0 1.0 7.0 1.0 9.0 6.0 4.0 4.0 0.0 9.0 8.0 3.0 8.0 1.0 9.0 5.0 3.0 -327.0 8.0 4.0 0.0 7.0 4.0 7.0 10.0 10.0 1.0 7.0 3.0 1.0 6.0 
9.0 9.0 9.0 2.0 10.0 5.0 9.0 1.0 4.0 1.0 1.0 8.0 5.0 3.0 10.0 10.0 9.0 5.0 8.0 3.0 5.0 9.0 4.0 4.0 5.0 7.0 1.0 3.0 6.0 6.0 1.0 8.0 0.0 10.0 1.0 0.0 6.0 9.0 4.0 3.0 9.0 0.0 9.0 9.0 8.0 1.0 8.0 -312.0 4.0 2.0 9.0 7.0 7.0 3.0 1.0 6.0 3.0 1.0 10.0 2.0 
9.0 4.0 6.0 8.0 4.0 7.0 10.0 6.0 1.0 4.0 7.0 6.0 6.0 1.0 6.0 10.0 3.0 9.0 7.0 4.0 0.0 1.0 6.0 5.0 10.0 0.0 4.0 4.0 0.0 2.0 6.0 2.0 9.0 1.0 2.0 6.0 3.0 6.0 4.0 9.0 1.0 2.0 10.0 5.0 2.0 4.0 4.0 4.0 -291.0 1.0 8.0 2.0 8.0 10.0 6.0 5.0 9.0 3.0 3.0 6.0 
5.0 10.0 7.0 9.0 4.0 4.0 10.0 9.0 0.0 9.0 10.0 6.0 5.0 2.0 9.0 10.0 4.0 3.0 7.0 5.0 3.0 4.0 4.0 4.0 10.0 8.0 7.0 4.0 0.0 3.0 7.0 1.0 5.0 2.0 7.0 7.0 10.0 4.0 7.0 1.0 6.0 9.0 10.0 4.0 8.0 2.0 0.0 2.0 1.0 -325.0 3.0 8.0 9.0 8.0 2.0 7.0 7.0 4.0 0.0 9.0 
7.0 7.0 8.0 1.0 6.0 0.0 0.0 2.0 3.0 10.0 8.0 6.0 8.0 10.0 9.0 7.0 0.0 3.0 2.0 7.0 7.0 7.0 2.0 6.0 6.0 4.0 7.0 9.0 4.0 6.0 3.0 0.0 0.0 4.0 0.0 8.0 2.0 9.0 4.0 6.0 6.0 10.0 7.0 5.0 2.0 1.0 7.0 9.0 8.0 3.0 -291.0 2.0 1.0 9.0 1.0 2.0 4.0 5.0 6.0 5.0 
9.0 6.0 10.0 10.0 4.0 0.0 9.0 7.0 5.0 0.0 2.0 4.0 9.0 9.0 9.0 8.0 7.0 6.0 2.0 6.0 6.0 6.0 10.0 4.0 7.0 4.0 7.0 5.0 10.0 10.0 0.0 3.0 5.0 7.0 3.0 6.0 2.0 2.0 8.0 7.0 4.0 0.0 6.0 3.0 3.0 1.0 4.0 7.0 2.0 8.0 2.0 -305.0 4.0 3.0 0.0 3.0 8.0 1.0 2.0 10.0 
8.0 7.0 7.0 3.0 10.0 7.0 10.0 1.0 2.0 10.0 4.0 7.0 3.0 6.0 9.0 7.0 1.0 9.0 10.0 10.0 5.0 6.0 8.0 0.0 2.0 1.0 9.0 5.0 4.0 7.0 2.0 5.0 2.0 9.0 2.0 6.0 7.0 0.0 3.0 10.0 5.0 10.0 0.0 0.0 3.0 8.0 7.0 7.0 8.0 9.0 1.0 4.0 -313.0 2.0 6.0 5.0 1.0 10.0 0.0 3.0 
7.0 0.0 5.0 5.0 8.0 6.0 6.0 3.0 3.0 0.0 1.0 1.0 3.0 8.0 8.0 3.0 8.0 10.0 3.0 6.0 7.0 0.0 4.0 0.0 0.0 5.0 7.0 1.0 0.0 7.0 3.0 1.0 9.0 5.0 0.0 10.0 9.0 5.0 9.0 5.0 3.0 10.0 6.0 5.0 7.0 8.0 10.0 3.0 10.0 8.0 9.0 3.0 2.0 -308.0 8.0 10.0 6.0 10.0 4.0 5.0 
2.0 0.0 8.0 1.0 2.0 5.0 7.0 3.0 9.0 6.0 1.0 10.0 5.0 9.0 10.0 8.0 1.0 9.0 3.0 10.0 0.0 8.0 7.0 8.0 9.0 4.0 4.0 2.0 7.0 4.0 9.0 5.0 0.0 0.0 4.0 7.0 4.0 8.0 4.0 3.0 3.0 10.0 8.0 4.0 6.0 5.0 10.0 1.0 6.0 2.0 1.0 0.0 6.0 8.0 -309.0 9.0 5.0 5.0 4.0 10.0 
1.0 0.0 3.0 10.0 5.0 2.0 2.0 7.0 4.0 4.0 7.0 7.0 2.0 5.0 9.0 8.0 8.0 5.0 4.0 8.0 8.0 5.0 0.0 10.0 3.0 1.0 1.0 4.0 1.0 4.0 7.0 9.0 4.0 4.0 8.0 3.0 7.0 8.0 2.0 9.0 1.0 7.0 5.0 7.0 0.0 4.0 1.0 6.0 5.0 7.0 2.0 3.0 5.0 10.0 9.0 -289.0 9.0 5.0 2.0 2.0 
2.0 0.0 3.0 3.0 3.0 6.0 2.0 9.0 4.0 6.0 1.0 1.0 0.0 0.0 6.0 8.0 10.0 9.0 6.0 0.0 0.0 10.0 1.0 3.0 9.0 3.0 9.0 10.0 2.0 8.0 5.0 8.0 4.0 7.0 9.0 1.0 8.0 7.0 7.0 8.0 6.0 8.0 7.0 5.0 8.0 10.0 7.0 3.0 9.0 7.0 4.0 8.0 1.0 6.0 5.0 9.0 -313.0 0.0 4.0 8.0 
6.0 0.0 8.0 10.0 5.0 4.0 1.0 1.0 1.0 1.0 3.0 10.0 9.0 8.0 4.0 10.0 6.0 1.0 10.0 4.0 1.0 2.0 8.0 6.0 1.0 1.0 1.0 1.0 4.0 8.0 10.0 2.0 9.0 9.0 10.0 5.0 10.0 7.0 2.0 6.0 4.0 3.0 8.0 4.0 3.0 9.0 3.0 1.0 3.0 4.0 5.0 1.0 10.0 10.0 5.0 5.0 0.0 -300.0 7.0 10.0 
8.0 0.0 10.0 9.0 8.0 3.0 4.0 8.0 2.0 9.0 3.0 4.0 5.0 5.0 0.0 10.0 2.0 2.0 7.0 8.0 3.0 4.0 6.0 7.0 4.0 1.0 9.0 7.0 4.0 7.0 2.0 9.0 9.0 4.0 9.0 4.0 10.0 3.0 2.0 1.0 2.0 4.0 5.0 3.0 1.0 8.0 1.0 10.0 3.0 0.0 6.0 2.0 0.0 4.0 4.0 2.0 4.0 7.0 -281.0 3.0 
0.0 0.0 8.0 10.0 5.0 9.0 2.0 1.0 7.0 10.0 5.0 9.0 5.0 4.0 9.0 3.0 4.0 7.0 4.0 10.0 2.0 1.0 1.0 1.0 5.0 9.0 1.0 10.0 9.0 3.0 1.0 5.0 4.0 6.0 6.0 7.0 5.0 9.0 9.0 0.0 10.0 10.0 4.0 0.0 5.0 8.0 6.0 2.0 6.0 9.0 5.0 10.0 3.0 5.0 10.0 2.0 8.0 10.0 3.0 -322.0 

